c generated by sgen
p cnf 93 196
-2 -3 -4 0
-1 -3 -4 0
-1 -2 -4 0
-1 -2 -3 0
-6 -7 -8 0
-5 -7 -8 0
-5 -6 -8 0
-5 -6 -7 0
-10 -11 -12 0
-9 -11 -12 0
-9 -10 -12 0
-9 -10 -11 0
-14 -15 -16 0
-13 -15 -16 0
-13 -14 -16 0
-13 -14 -15 0
-18 -19 -20 0
-17 -19 -20 0
-17 -18 -20 0
-17 -18 -19 0
-22 -23 -24 0
-21 -23 -24 0
-21 -22 -24 0
-21 -22 -23 0
-26 -27 -28 0
-25 -27 -28 0
-25 -26 -28 0
-25 -26 -27 0
-30 -31 -32 0
-29 -31 -32 0
-29 -30 -32 0
-29 -30 -31 0
-34 -35 -36 0
-33 -35 -36 0
-33 -34 -36 0
-33 -34 -35 0
-38 -39 -40 0
-37 -39 -40 0
-37 -38 -40 0
-37 -38 -39 0
-42 -43 -44 0
-41 -43 -44 0
-41 -42 -44 0
-41 -42 -43 0
-46 -47 -48 0
-45 -47 -48 0
-45 -46 -48 0
-45 -46 -47 0
-50 -51 -52 0
-49 -51 -52 0
-49 -50 -52 0
-49 -50 -51 0
-54 -55 -56 0
-53 -55 -56 0
-53 -54 -56 0
-53 -54 -55 0
-58 -59 -60 0
-57 -59 -60 0
-57 -58 -60 0
-57 -58 -59 0
-62 -63 -64 0
-61 -63 -64 0
-61 -62 -64 0
-61 -62 -63 0
-66 -67 -68 0
-65 -67 -68 0
-65 -66 -68 0
-65 -66 -67 0
-70 -71 -72 0
-69 -71 -72 0
-69 -70 -72 0
-69 -70 -71 0
-74 -75 -76 0
-73 -75 -76 0
-73 -74 -76 0
-73 -74 -75 0
-78 -79 -80 0
-77 -79 -80 0
-77 -78 -80 0
-77 -78 -79 0
-82 -83 -84 0
-81 -83 -84 0
-81 -82 -84 0
-81 -82 -83 0
-86 -87 -88 0
-85 -87 -88 0
-85 -86 -88 0
-85 -86 -87 0
-89 -90 -91 0
-89 -90 -92 0
-89 -90 -93 0
-89 -91 -92 0
-89 -91 -93 0
-89 -92 -93 0
-90 -91 -92 0
-90 -91 -93 0
-90 -92 -93 0
-91 -92 -93 0
53 43 6 0
87 43 6 0
87 53 6 0
87 53 43 0
45 4 30 0
73 4 30 0
73 45 30 0
73 45 4 0
12 26 23 0
74 26 23 0
74 12 23 0
74 12 26 0
76 67 19 0
37 67 19 0
37 76 19 0
37 76 67 0
36 31 42 0
17 31 42 0
17 36 42 0
17 36 31 0
56 89 34 0
48 89 34 0
48 56 34 0
48 56 89 0
2 28 33 0
72 28 33 0
72 2 33 0
72 2 28 0
88 93 62 0
47 93 62 0
47 88 62 0
47 88 93 0
71 64 80 0
66 64 80 0
66 71 80 0
66 71 64 0
9 69 39 0
44 69 39 0
44 9 39 0
44 9 69 0
20 61 11 0
7 61 11 0
7 20 11 0
7 20 61 0
46 78 90 0
10 78 90 0
10 46 90 0
10 46 78 0
55 63 25 0
60 63 25 0
60 55 25 0
60 55 63 0
59 75 84 0
86 75 84 0
86 59 84 0
86 59 75 0
82 51 27 0
68 51 27 0
68 82 27 0
68 82 51 0
8 65 58 0
15 65 58 0
15 8 58 0
15 8 65 0
21 35 13 0
79 35 13 0
79 21 13 0
79 21 35 0
3 24 5 0
83 24 5 0
83 3 5 0
83 3 24 0
85 50 1 0
18 50 1 0
18 85 1 0
18 85 50 0
52 14 29 0
70 14 29 0
70 52 29 0
70 52 14 0
38 16 81 0
91 16 81 0
91 38 81 0
91 38 16 0
22 54 32 0
40 54 32 0
40 22 32 0
40 22 54 0
41 57 77 0
41 57 49 0
41 57 92 0
41 77 49 0
41 77 92 0
41 49 92 0
57 77 49 0
57 77 92 0
57 49 92 0
77 49 92 0
